NAME: random-77-4446
TYPE: TSP
COMMENT: size=77 seed=4446
DIMENSION: 156
EDGE_WEIGHT_TYPE: EUC_2D
NODE_COORD_SECTION
+0 922 206
-0 922 206
+1 684 781
-1 401 942
+2 718 929
-2 105 667
+3 414 741
-3 863 653
+4 841 136
-4 152 793
+5 306 83
-5 368 30
+6 746 844
-6 178 159
+7 633 711
-7 853 360
+8 950 565
-8 276 345
+9 270 593
-9 552 438
+10 876 616
-10 114 53
+11 598 289
-11 912 935
+12 360 42
-12 117 657
+13 889 390
-13 669 760
+14 843 886
-14 206 695
+15 778 815
-15 989 258
+16 504 626
-16 341 227
+17 877 549
-17 686 97
+18 753 684
-18 105 636
+19 697 422
-19 455 46
+20 330 545
-20 244 626
+21 162 664
-21 199 609
+22 525 258
-22 556 291
+23 910 918
-23 76 69
+24 32 875
-24 889 862
+25 410 302
-25 894 864
+26 201 641
-26 93 600
+27 852 432
-27 805 104
+28 415 930
-28 844 187
+29 962 539
-29 209 139
+30 572 82
-30 513 441
+31 177 443
-31 55 678
+32 488 135
-32 11 137
+33 376 229
-33 477 385
+34 983 767
-34 596 773
+35 59 817
-35 764 696
+36 699 741
-36 830 217
+37 770 39
-37 751 77
+38 50 738
-38 391 799
+39 633 895
-39 969 406
+40 511 330
-40 288 179
+41 626 748
-41 408 167
+42 72 36
-42 595 485
+43 275 661
-43 619 412
+44 425 714
-44 651 834
+45 919 312
-45 700 520
+46 803 178
-46 629 183
+47 394 251
-47 759 625
+48 967 892
-48 830 579
+49 569 895
-49 243 890
+50 63 636
-50 792 395
+51 384 448
-51 303 29
+52 401 582
-52 730 603
+53 418 792
-53 244 999
+54 48 915
-54 247 402
+55 877 30
-55 597 113
+56 445 863
-56 508 922
+57 87 721
-57 609 581
+58 478 18
-58 436 388
+59 696 689
-59 337 638
+60 687 45
-60 864 534
+61 417 712
-61 522 914
+62 513 846
-62 130 607
+63 982 911
-63 253 175
+64 540 851
-64 762 698
+65 177 102
-65 274 419
+66 122 505
-66 434 957
+67 782 54
-67 631 986
+68 949 364
-68 725 748
+69 917 189
-69 234 562
+70 582 402
-70 840 425
+71 789 258
-71 526 800
+72 804 212
-72 960 987
+73 14 897
-73 776 925
+74 933 425
-74 212 645
+75 173 395
-75 508 284
+76 650 651
-76 197 311
+77 319 774
-77 800 985
PRECEDENCE_SECTION
+0 -0
+1 -1
+2 -2
+3 -3
+4 -4
+5 -5
+6 -6
+7 -7
+8 -8
+9 -9
+10 -10
+11 -11
+12 -12
+13 -13
+14 -14
+15 -15
+16 -16
+17 -17
+18 -18
+19 -19
+20 -20
+21 -21
+22 -22
+23 -23
+24 -24
+25 -25
+26 -26
+27 -27
+28 -28
+29 -29
+30 -30
+31 -31
+32 -32
+33 -33
+34 -34
+35 -35
+36 -36
+37 -37
+38 -38
+39 -39
+40 -40
+41 -41
+42 -42
+43 -43
+44 -44
+45 -45
+46 -46
+47 -47
+48 -48
+49 -49
+50 -50
+51 -51
+52 -52
+53 -53
+54 -54
+55 -55
+56 -56
+57 -57
+58 -58
+59 -59
+60 -60
+61 -61
+62 -62
+63 -63
+64 -64
+65 -65
+66 -66
+67 -67
+68 -68
+69 -69
+70 -70
+71 -71
+72 -72
+73 -73
+74 -74
+75 -75
+76 -76
+77 -77
EOF
